%Chk=run.chk
#CCSD/6-31G

title

0 1
N 0.0 0.0 0.0
N 1.0 0.0 0.0

