%Chk=run.chk
#{{ method }} Gen scf=tight Massage guess=indo integral=NoXCTest Pop=Dipole Density=Current NoSymm

run

0 1
{{ coordinates }}

{{ basisset }}

{{ nuclearcharges }}