%Chk=run.chk
#UHF Gen scf=tight Massage integral=NoXCTest Density=Current Prop=EFG

run

0 1
7 0.000000 0.000000 0.000000
7 0.000000 0.000000 1.000000

1 0
S   3   1.00
      0.7161683735D+02       0.1543289673D+00
      0.1304509632D+02       0.5353281423D+00
      0.3530512160D+01       0.4446345422D+00
SP   3   1.00
      0.2941249355D+01      -0.9996722919D-01       0.1559162750D+00
      0.6834830964D+00       0.3995128261D+00       0.6076837186D+00
      0.2222899159D+00       0.7001154689D+00       0.3919573931D+00
****
2 0
S   3   1.00
      0.1307093214D+03       0.1543289673D+00
      0.2380886605D+02       0.5353281423D+00
      0.6443608313D+01       0.4446345422D+00
SP   3   1.00
      0.5033151319D+01      -0.9996722919D-01       0.1559162750D+00
      0.1169596125D+01       0.3995128261D+00       0.6076837186D+00
      0.3803889600D+00       0.7001154689D+00       0.3919573931D+00
****

1 Nuc 6.000000
2 Nuc 8.000000